50
    57    19     2    22    56     5    55    93    24    69    74     4    64    28    95    66    70    13    94    58    26    71    88    23     8    67    35    69    82    80    34    70     3     3    25    67    18    48    86    65    66    40    38    35    74    21    43    14    62    47
     3    10     8     4     2    10     9     3     3     6     3    10     5     5     9     1     5     9     7     2     6     7     2     1     9    10     8     3     1     6     4     2     8     5     9     5     2     4     5     6     3     5     6     9     6     1    10     9     5     5
     0     0     0   332     0     0   396   415    52   380   223     0     0     0     0    74   374   370    64     0     0   345     0   269     0   319    24   116    21   114   473     0     0     0     0     0   385   199    85   438     0   253     0     0     0   306     0     0   437   361
